c read Graph
c width = 37
c time = 66 ms
c width = 5
c time = 99 ms
c width = 5
c time = 4890 ms
s td 46 6 50
b 1 1 2 11
b 2 2 3 11 12
b 3 8 9 19 20
b 4 3 11 12 21
b 5 8 19 20 30
b 6 21 31 32 42
b 7 30 39 40 49
b 8 21 32 42 43
b 9 30 39 48 49
b 10 3 4 5 14
b 11 5 6 7 16
b 12 3 12 13 21 22
b 13 8 18 19 29 30
b 14 7 8 18 29 30
b 15 21 22 32 33 43
b 16 29 30 38 39 48
b 17 21 22 33 43 44
b 18 35 44 45 46
b 19 37 46 47 48
b 20 5 14 15 16 25
b 21 7 16 17 18 27
b 22 18 27 28 29 38
b 23 7 18 29 30 38 48
b 24 7 18 27 29 38 48
b 25 7 16 18 27 38 48
b 26 7 16 27 37 38 48
b 27 5 7 16 27 37 48
b 28 5 16 26 27 37 48
b 29 26 35 36 37 46
b 30 5 16 26 37 46 48
b 31 5 16 26 35 37 46
b 32 5 16 25 26 35 46
b 33 5 14 16 25 35 46
b 34 3 5 14 25 35 46
b 35 3 14 24 25 35 46
b 36 3 13 14 24 35 46
b 37 13 22 23 24 33
b 38 24 33 34 35 44
b 39 3 13 24 35 44 46
b 40 3 13 21 22 33 44
b 41 3 13 22 24 33 44
b 42 3 13 24 33 35 44
b 43 24 33 35 44
b 44 40 49 50
b 45 31 41 42
b 46 9 10 20
1 2
2 4
3 46
3 5
4 12
5 13
6 45
6 8
7 44
7 9
8 15
9 16
10 34
11 27
12 40
13 14
14 23
15 17
16 23
17 40
18 39
19 30
20 33
21 25
22 24
23 24
24 25
25 26
26 27
27 28
28 30
29 31
30 31
31 32
32 33
33 34
34 35
35 36
36 39
37 41
38 43
39 42
40 41
41 42
42 43
